Problem:    
Rows:       68
Columns:    29 (20 integer, 20 binary)
Non-zeros:  206
Status:     INTEGER OPTIMAL
Objective:  value = 8.801127 (MINimum)

   No.   Row name        Activity     Lower bound   Upper bound
------ ------------    ------------- ------------- -------------
     1 r.5                   8.80113             0               
     2 r.6                   8.80113      -983.624               
     3 r.7                    1008.8             0               
     4 r.8                  -991.199       -991.23               
     5 r.9                    1008.8             0               
     6 r.10                 -991.199      -999.794               
     7 r.11                  8.80113             0               
     8 r.12                  8.80113      -998.705               
     9 r.13                   1008.8             0               
    10 r.14                 -991.404       -997.02               
    11 r.15                  8.80113             0               
    12 r.16                  8.80113      -997.381               
    13 r.17                   1008.8             0               
    14 r.18                 -999.969      -999.969               
    15 r.19                  8.80113             0               
    16 r.20                 0.030911      -998.701               
    17 r.21                        1             1             = 
    18 r.22                        1             1             = 
    19 r.23                        1             1             = 
    20 r.24                        1             1             = 
    21 r.25                     1001             2               
    22 r.26                    -1001         -1001               
    23 r.27                     2000      -999.794               
    24 r.28                     1001             2               
    25 r.29                    -1001         -1001               
    26 r.30                     2000      -998.705               
    27 r.31                     1001             2               
    28 r.32                    -1001         -1001               
    29 r.33                  1999.79       -997.02               
    30 r.34                     1001             2               
    31 r.35                    -1001         -1001               
    32 r.36                     2000      -997.381               
    33 r.37                  8.77022      -983.624               
    34 r.38                  -991.23       -991.23               
    35 r.39                  8.77022      -983.624               
    36 r.40                  -991.23       -991.23               
    37 r.41                     1001             2               
    38 r.42                    -1001         -1001               
    39 r.43                     2000       16.3764               
    40 r.44                     1001             2               
    41 r.45                    -1001         -1001               
    42 r.46                     2000       8.77022               
    43 r.47                        2             2               
    44 r.48                       -2         -1001               
    45 r.49                -0.205559       -997.02               
    46 r.50                     1000             2               
    47 r.51                    -1000         -1001               
    48 r.52                     2000      -997.381               
    49 r.53                  -991.23      -999.794               
    50 r.54                  8.77022      -998.705               
    51 r.55                  -991.23      -999.794               
    52 r.56                  8.77022      -998.705               
    53 r.57                     1001             2               
    54 r.58                    -1001         -1001               
    55 r.59                  2000.21       16.3764               
    56 r.60                     1001             2               
    57 r.61                    -1001         -1001               
    58 r.62                     2000       8.77022               
    59 r.63                        2             2               
    60 r.64                       -2         -1001               
    61 r.65                 0.205559      0.205559               
    62 r.66                     1000             2               
    63 r.67                    -1000         -1001               
    64 r.68                     2000       1.29515               
    65 r.69                 -991.435       -997.02               
    66 r.70                  8.77022      -997.381               
    67 r.71                 -991.435       -997.02               
    68 r.72                  8.77022      -997.381               

   No. Column name       Activity     Lower bound   Upper bound
------ ------------    ------------- ------------- -------------
     1 tt                    8.80113             0               
     2 s_1_1        *              0             0             1 
     3 t_1_1                       0             0               
     4 s_2_1        *              1             0             1 
     5 t_2_1                       0             0               
     6 s_1_2        *              1             0             1 
     7 t_1_2                       0             0               
     8 s_2_2        *              0             0             1 
     9 t_2_2                       0             0               
    10 s_1_3        *              1             0             1 
    11 t_1_3                0.205559             0               
    12 s_2_3        *              0             0             1 
    13 t_2_3                       0             0               
    14 s_1_4        *              1             0             1 
    15 t_1_4                 8.77022             0               
    16 s_2_4        *              0             0             1 
    17 t_2_4                 8.77022             0               
    18 r_1_1_2      *              1             0             1 
    19 u_1_1_2      *              0             0             1 
    20 r_2_1_2      *              1             0             1 
    21 u_2_1_2      *              0             0             1 
    22 r_1_1_3      *              1             0             1 
    23 u_1_1_3      *              0             0             1 
    24 r_2_1_3      *              1             0             1 
    25 u_2_1_3      *              0             0             1 
    26 r_1_2_3      *              0             0             1 
    27 u_1_2_3      *              0             0             1 
    28 r_2_2_3      *              1             0             1 
    29 u_2_2_3      *              0             0             1 

Integer feasibility conditions:

KKT.PE: max.abs.err = 0.00e+00 on row 0
        max.rel.err = 0.00e+00 on row 0
        High quality

KKT.PB: max.abs.err = 0.00e+00 on row 0
        max.rel.err = 0.00e+00 on row 0
        High quality

End of output
